NAME: SCAIL165_4333_15
COMMENT:Generated as the SCAIL100 dataset for the INCOM2024 Data Challenge
TYPE: Multi-Depot CVRP
DEPOTS: 4
DIMENSION: 169
EDGE_WEIGHT_TYPE: EUC_2D
CAPACITY: 60

NODE_COORD_SECTION 
1    161  934 
2    824  697 
3    753  37  
4    244  17  
5    578  818 
6    15   860 
7    17   293 
8    160  284 
9    261  162 
10   595  4   
11   667  173 
12   775  929 
13   895  363 
14   150  877 
15   943  568 
16   692  504 
17   216  276 
18   414  795 
19   418  2   
20   208  226 
21   115  425 
22   661  461 
23   503  326 
24   816  502 
25   45   485 
26   884  829 
27   131  344 
28   60   967 
29   677  643 
30   96   426 
31   944  514 
32   952  710 
33   612  43  
34   404  48  
35   317  318 
36   990  758 
37   773  607 
38   605  605 
39   308  260 
40   858  19  
41   628  960 
42   302  411 
43   14   243 
44   891  452 
45   771  664 
46   10   285 
47   846  676 
48   67   502 
49   700  631 
50   864  736 
51   83   583 
52   567  769 
53   641  325 
54   983  473 
55   803  707 
56   237  796 
57   746  728 
58   399  385 
59   857  815 
60   783  692 
61   346  477 
62   75   380 
63   544  56  
64   144  168 
65   583  322 
66   556  970 
67   396  926 
68   60   345 
69   876  102 
70   245  119 
71   65   42  
72   461  915 
73   590  80  
74   104  278 
75   512  362 
76   802  464 
77   626  622 
78   900  770 
79   130  425 
80   512  63  
81   935  636 
82   125  447 
83   930  530 
84   842  511 
85   878  211 
86   61   227 
87   80   240 
88   800  75  
89   487  344 
90   578  492 
91   234  957 
92   236  591 
93   32   187 
94   913  119 
95   926  574 
96   35   329 
97   771  663 
98   237  183 
99   824  507 
100  694  86  
101  269  352 
102  68   371 
103  278  485 
104  117  333 
105  266  950 
106  940  605 
107  839  473 
108  122  301 
109  74   371 
110  816  654 
111  23   341 
112  630  125 
113  737  727 
114  429  501 
115  485  863 
116  410  167 
117  742  860 
118  542  506 
119  168  844 
120  94   294 
121  550  46  
122  921  26  
123  459  709 
124  797  707 
125  287  401 
126  809  541 
127  738  261 
128  200  143 
129  591  37  
130  816  320 
131  891  631 
132  725  364 
133  822  617 
134  57   341 
135  50   238 
136  466  860 
137  523  430 
138  18   166 
139  145  118 
140  103  493 
141  597  501 
142  368  449 
143  711  376 
144  183  321 
145  0    291 
146  297  462 
147  729  763 
148  772  636 
149  893  999 
150  512  87  
151  80   472 
152  510  44  
153  780  841 
154  947  744 
155  155  908 
156  832  677 
157  856  589 
158  982  967 
159  75   479 
160  149  309 
161  624  65  
162  625  9   
163  618  745 
164  76   306 
165  228  312 
166  737  726 
167  609  31  
168  546  176 
169  598  3   

DEMAND_SECTION
1    0   
2    0   
3    0   
4    0   
5    8   
6    7   
7    10  
8    6   
9    10  
10   9   
11   8   
12   10  
13   6   
14   8   
15   5   
16   9   
17   7   
18   6   
19   6   
20   9   
21   9   
22   10  
23   10  
24   7   
25   5   
26   8   
27   8   
28   9   
29   7   
30   9   
31   9   
32   10  
33   7   
34   8   
35   10  
36   9   
37   9   
38   9   
39   5   
40   10  
41   7   
42   10  
43   6   
44   6   
45   7   
46   6   
47   8   
48   6   
49   7   
50   5   
51   5   
52   5   
53   8   
54   7   
55   10  
56   7   
57   7   
58   5   
59   9   
60   9   
61   5   
62   10  
63   10  
64   6   
65   8   
66   5   
67   6   
68   8   
69   5   
70   9   
71   10  
72   6   
73   7   
74   10  
75   5   
76   7   
77   8   
78   9   
79   7   
80   8   
81   5   
82   5   
83   7   
84   9   
85   7   
86   7   
87   6   
88   9   
89   5   
90   6   
91   6   
92   7   
93   5   
94   9   
95   10  
96   6   
97   6   
98   10  
99   10  
100  5   
101  10  
102  6   
103  9   
104  7   
105  7   
106  8   
107  8   
108  9   
109  10  
110  10  
111  9   
112  7   
113  8   
114  6   
115  5   
116  10  
117  5   
118  8   
119  5   
120  10  
121  9   
122  8   
123  9   
124  9   
125  5   
126  10  
127  9   
128  6   
129  9   
130  10  
131  5   
132  7   
133  6   
134  6   
135  7   
136  5   
137  5   
138  6   
139  5   
140  10  
141  5   
142  7   
143  10  
144  8   
145  6   
146  5   
147  7   
148  7   
149  10  
150  6   
151  7   
152  6   
153  5   
154  6   
155  5   
156  7   
157  8   
158  7   
159  6   
160  10  
161  9   
162  8   
163  6   
164  9   
165  5   
166  7   
167  6   
168  10  
169  5   

DEPOT_SECTION
1    161  934 
2    824  697 
3    753  37  
4    244  17  
-1
EOF
